
Log started (V11.0.0) Wed Apr 16 08:07:06 2008

Tried aggregator 1 time.
Reduced MIP has 130 rows, 3001 columns, and 6030 nonzeros.
Presolve time =    0.03 sec.
Clique table members: 100.
MIP emphasis: balance optimality and feasibility.
MIP search method: dynamic search.
Parallel mode: none, using 1 thread.
Root relaxation solution time =    0.06 sec.

        Nodes                                         Cuts/
   Node  Left     Objective  IInf  Best Integer     Best Node    ItCnt     Gap

*     0+    0                         5611.0000       41.1009      465   99.27%
*     0+    0                           54.0000       41.1009      465   23.89%
      0     0       42.0000    50       54.0000      Fract: 7      485   22.22%
*     0+    0                           53.0000       42.0000      485   20.75%
      0     0       42.0000    50       53.0000   Impl Bds: 1      487   20.75%
*     0+    0                           52.0000       42.0000      487   19.23%
      0     0       42.0000    50       52.0000   Impl Bds: 1      488   19.23%
*     0+    0                           51.0000       42.0000      488   17.65%

Repeating presolve.
Tried aggregator 1 time.
MIP Presolve eliminated 0 rows and 1639 columns.
MIP Presolve modified 46 coefficients.
Reduced MIP has 130 rows, 1362 columns, and 2752 nonzeros.
Tried aggregator 1 time.
Represolve time =    0.06 sec.
Clique table members: 311.
MIP emphasis: balance optimality and feasibility.
MIP search method: dynamic search.
Parallel mode: none, using 1 thread.
Root relaxation solution time =    0.05 sec.

        Nodes                                         Cuts/
   Node  Left     Objective  IInf  Best Integer     Best Node    ItCnt     Gap

      0     0       42.0000    63       51.0000       42.0000      376   17.65%
      0     2       42.0000    63       51.0000       42.0000      376   17.65%
    100    88       45.0000    45       51.0000       42.0000     2161   17.65%
    200   169       47.0000    42       51.0000       42.0000     4227   17.65%
*   290+  211                           49.0000       42.0000     5967   14.29%
    300   221       44.0000    40       49.0000       42.0000     6169   14.29%
    400   312       46.6215    52       49.0000       42.0000     8019   14.29%
*   491+  292                           47.0000       42.0000     9668   10.64%
    500   298       44.0000    52       47.0000       44.0000    12087    6.38%
    600   323       46.0000    46       47.0000       44.0000    15186    6.38%
*   694+  165                           46.0000       44.0000    21526    4.35%
    700   156       44.7750   138       46.0000       44.0000    23481    4.35%
    800   135    infeasible             46.0000       45.0000    34740    2.17%
    900   152       45.0000    75       46.0000       45.0000    44723    2.17%
   1000   190       45.0000    81       46.0000       45.0000    55547    2.17%
Elapsed time =  13.34 sec. (tree size =  0.87 MB, solutions = 8)
   1100   234       45.0000    80       46.0000       45.0000    65711    2.17%
   1200   270       45.0000    89       46.0000       45.0000    77632    2.17%
   1300   292       45.0000    84       46.0000       45.0000    92734    2.17%
   1400   316    infeasible             46.0000       45.0000   108451    2.17%
   1500   364    infeasible             46.0000       45.0000   117796    2.17%
   1600   416    infeasible             46.0000       45.0000   126368    2.17%
   1700   442       45.0000    63       46.0000       45.0000   138448    2.17%
   1800   464       45.0000   112       46.0000       45.0000   149704    2.17%
   1900   495       45.0000    62       46.0000       45.0000   161489    2.17%
   2000   505       45.0000    56       46.0000       45.0000   175948    2.17%
Elapsed time =  32.38 sec. (tree size =  2.77 MB, solutions = 8)
   2100   525       45.0000    78       46.0000       45.0000   188812    2.17%
   2200   535    infeasible             46.0000       45.0000   201042    2.17%
   2300   514       45.0000    73       46.0000       45.0000   219857    2.17%
   2400   536       45.0000    56       46.0000       45.0000   234481    2.17%
   2500   598       45.0000    99       46.0000       45.0000   241540    2.17%
   2600   658    infeasible             46.0000       45.0000   251994    2.17%
   2700   694    infeasible             46.0000       45.0000   263787    2.17%
   2800   728       45.0000    74       46.0000       45.0000   275113    2.17%
   2900   774    infeasible             46.0000       45.0000   283206    2.17%
   3000   801    infeasible             46.0000       45.0000   295411    2.17%
Elapsed time =  53.92 sec. (tree size =  4.83 MB, solutions = 8)
   3100   821       45.0000    39       46.0000       45.0000   306260    2.17%
   3200   832    infeasible             46.0000       45.0000   320117    2.17%
   3300   828       45.0000    80       46.0000       45.0000   332389    2.17%
   3400   852    infeasible             46.0000       45.0000   343125    2.17%
   3500   869    infeasible             46.0000       45.0000   354359    2.17%
   3600   901       45.0000    62       46.0000       45.0000   363660    2.17%
   3700   923    infeasible             46.0000       45.0000   371493    2.17%
   3800   965    infeasible             46.0000       45.0000   382545    2.17%
   3900  1005    infeasible             46.0000       45.0000   392840    2.17%
   4000  1017       45.0000    44       46.0000       45.0000   408773    2.17%
Elapsed time =  74.80 sec. (tree size =  6.44 MB, solutions = 8)
   4100  1021       45.0000    32       46.0000       45.0000   424502    2.17%
   4200  1051       45.0000    41       46.0000       45.0000   436245    2.17%
   4300  1109       45.0000    93       46.0000       45.0000   445368    2.17%
   4400  1143       45.0000    49       46.0000       45.0000   458384    2.17%
   4500  1173       45.0000    63       46.0000       45.0000   471239    2.17%
   4600  1184       45.0000    60       46.0000       45.0000   487994    2.17%
   4700  1204       45.0000    35       46.0000       45.0000   503468    2.17%
   4800  1226    infeasible             46.0000       45.0000   518391    2.17%
   4900  1208       45.0000    62       46.0000       45.0000   536742    2.17%
   5000  1186    infeasible             46.0000       45.0000   558173    2.17%
Elapsed time = 101.92 sec. (tree size =  7.78 MB, solutions = 8)
   5100  1178       45.0000    46       46.0000       45.0000   576976    2.17%
   5200  1165    infeasible             46.0000       45.0000   590849    2.17%
   5300  1183       45.0000    84       46.0000       45.0000   605725    2.17%
   5400  1199    infeasible             46.0000       45.0000   621713    2.17%
   5500  1221       45.0000    55       46.0000       45.0000   635332    2.17%
   5600  1237       45.0000    77       46.0000       45.0000   649393    2.17%
   5700  1256       45.0000    83       46.0000       45.0000   657986    2.17%
   5800  1271       45.0000    75       46.0000       45.0000   670980    2.17%
   5900  1319    infeasible             46.0000       45.0000   677739    2.17%
   6000  1351       45.0000    47       46.0000       45.0000   684416    2.17%
Elapsed time = 126.39 sec. (tree size =  9.18 MB, solutions = 8)
   6100  1347       45.0000    65       46.0000       45.0000   694285    2.17%
   6200  1396    infeasible             46.0000       45.0000   701822    2.17%
   6300  1412    infeasible             46.0000       45.0000   710475    2.17%
   6400  1444       45.0000    59       46.0000       45.0000   720568    2.17%
   6500  1476    infeasible             46.0000       45.0000   735304    2.17%
   6600  1474       45.0000    78       46.0000       45.0000   756975    2.17%
   6700  1493       45.0000    77       46.0000       45.0000   767058    2.17%
   6800  1481    infeasible             46.0000       45.0000   778752    2.17%
   6900  1519       45.0000   104       46.0000       45.0000   792039    2.17%
   7000  1545    infeasible             46.0000       45.0000   807830    2.17%
Elapsed time = 150.38 sec. (tree size = 10.82 MB, solutions = 8)
   7100  1558       45.0000    88       46.0000       45.0000   826720    2.17%
   7200  1562       45.0000    99       46.0000       45.0000   845155    2.17%
   7300  1558       45.0000    85       46.0000       45.0000   859231    2.17%
   7400  1581       45.0000    57       46.0000       45.0000   873445    2.17%
   7500  1582       45.0000    66       46.0000       45.0000   883849    2.17%
   7600  1624       45.0000    62       46.0000       45.0000   894321    2.17%
   7700  1658    infeasible             46.0000       45.0000   902453    2.17%
   7800  1662       45.0000    56       46.0000       45.0000   915087    2.17%
   7900  1648       45.0000    32       46.0000       45.0000   931164    2.17%
   8000  1663    infeasible             46.0000       45.0000   945402    2.17%
Elapsed time = 177.25 sec. (tree size = 11.92 MB, solutions = 8)
   8100  1671       45.0000    65       46.0000       45.0000   959560    2.17%
   8200  1641    infeasible             46.0000       45.0000   980828    2.17%
   8300  1662       45.0000    36       46.0000       45.0000   993096    2.17%
   8400  1659    infeasible             46.0000       45.0000  1002994    2.17%
   8500  1665    infeasible             46.0000       45.0000  1013267    2.17%
   8600  1641    infeasible             46.0000       45.0000  1027440    2.17%
   8700  1679       45.0000    69       46.0000       45.0000  1038703    2.17%
   8800  1701       45.0000    80       46.0000       45.0000  1049366    2.17%
   8900  1701       45.0000    93       46.0000       45.0000  1064014    2.17%
   9000  1711       45.0000    72       46.0000       45.0000  1075170    2.17%
Elapsed time = 203.05 sec. (tree size = 12.46 MB, solutions = 8)
   9100  1747       45.0000    24       46.0000       45.0000  1083615    2.17%
   9200  1760    infeasible             46.0000       45.0000  1093055    2.17%
   9300  1789       45.0000    69       46.0000       45.0000  1102230    2.17%
*  9394+    0                           45.0000       45.0000  1109617    0.00%

Cover cuts applied:  557
Flow cuts applied:  1
Mixed integer rounding cuts applied:  36
Zero-half cuts applied:  4
Gomory fractional cuts applied:  9

Solution pool: 9 solutions saved.

MIP - Integer optimal solution:  Objective = 4.5000000000e+001
Solution time =  210.17 sec.  Iterations = 1109617  Nodes = 9394


Incumbent solution
Variable Name           Solution Value
Cmax                         45.000000
X_1_27                        1.000000
X_2_17                        1.000000
X_3_5                         1.000000
X_4_10                        1.000000
X_5_12                        1.000000
X_6_20                        1.000000
X_7_15                        1.000000
X_8_4                         1.000000
X_9_11                        1.000000
X_10_7                        1.000000
X_11_7                        1.000000
X_12_13                       1.000000
X_13_17                       1.000000
X_14_10                       1.000000
X_15_5                        1.000000
X_16_3                        1.000000
X_17_23                       1.000000
X_18_6                        1.000000
X_19_17                       1.000000
X_20_5                        1.000000
X_21_16                       1.000000
X_22_28                       1.000000
X_23_15                       1.000000
X_24_29                       1.000000
X_25_22                       1.000000
X_26_25                       1.000000
X_27_20                       1.000000
X_28_4                        1.000000
X_29_21                       1.000000
X_30_21                       1.000000
X_31_9                        1.000000
X_32_14                       1.000000
X_33_22                       1.000000
X_34_26                       1.000000
X_35_19                       1.000000
X_36_12                       1.000000
X_37_30                       1.000000
X_38_3                        1.000000
X_39_11                       1.000000
X_40_10                       1.000000
X_41_19                       1.000000
X_42_2                        1.000000
X_43_24                       1.000000
X_44_19                       1.000000
X_45_16                       1.000000
X_46_8                        1.000000
X_47_4                        1.000000
X_48_24                       1.000000
X_49_2                        1.000000
X_50_28                       1.000000
X_51_8                        1.000000
X_52_20                       1.000000
X_53_10                       1.000000
X_54_1                        1.000000
X_55_6                        1.000000
X_56_15                       1.000000
X_57_26                       1.000000
X_58_3                        1.000000
X_59_26                       1.000000
X_60_28                       1.000000
X_61_14                       1.000000
X_62_28                       1.000000
X_63_19                       1.000000
X_64_29                       1.000000
X_65_12                       1.000000
X_66_5                        1.000000
X_67_13                       1.000000
X_68_7                        1.000000
X_69_1                        1.000000
X_70_22                       1.000000
X_71_25                       1.000000
X_72_18                       1.000000
X_73_11                       1.000000
X_74_27                       1.000000
X_75_29                       1.000000
X_76_30                       1.000000
X_77_24                       1.000000
X_78_4                        1.000000
X_79_16                       1.000000
X_80_6                        1.000000
X_81_30                       1.000000
X_82_2                        1.000000
X_83_8                        1.000000
X_84_3                        1.000000
X_85_18                       1.000000
X_86_9                        1.000000
X_87_1                        1.000000
X_88_1                        1.000000
X_89_13                       1.000000
X_90_21                       1.000000
X_91_2                        1.000000
X_92_27                       1.000000
X_93_23                       1.000000
X_94_9                        1.000000
X_95_20                       1.000000
X_96_14                       1.000000
X_97_25                       1.000000
X_98_18                       1.000000
X_99_17                       1.000000
X_100_15                      1.000000
All other variables in the range 1-3001 are 0.
